[2026-03-01T17:23:13] Logging to: /run/media/saveas/Secondary-Storage/Masters/CS234/CS234_Reinforcement_Learning/Final Project/CS234_Final_Project/results/trajectory_optimization/nlp/TRACK1_280m/base/run_trajopt_demo_output.log
======================================================================
IPOPT TRAJECTORY OPTIMIZATION DEMO (SINGLE STAGE)
======================================================================

1. Loading track: /run/media/saveas/Secondary-Storage/Masters/CS234/CS234_Reinforcement_Learning/Final Project/CS234_Final_Project/maps/TRACK1_280m.mat
   Track length: 280.0 m

2. Creating vehicle model...
   Vehicle: SingleTrackModel(VW_Golf_GTI, weight_transfer=enabled)

3. Loaded obstacles from map: 0

4. Setup:
   N = 120
   ds = 2.33 m
   Obstacle subsamples/segment = 7
   Obstacle enforce midpoints = False
   Obstacle use slack = False
   Track buffer = 0.00 m
   lambda_u = 0.005
   vehicle_radius_m = 0.00
   eps_s = 0.100, eps_kappa = 0.050
   Solver path = Python/CasADi (IPOPT)

======================================================================
SINGLE STAGE: COMBINED OBJECTIVE (ACCEPTANCE-GATED)
======================================================================
Acceptance gates: success=True, max_slack<=0.000e+00, min_clearance>=-0.0010 m
Acceptance policy: practical epsilon mode (allows tiny negative dense clearance).
Initializer: obstacle_aware_init=True, sigma=8.00 m, margin=0.30 m

Attempt 1/4: baseline
  N=120, ds=2.333 m, subsamples=7, obstacle_clearance_m=0.000
Exception of type: DYNAMIC_LIBRARY_FAILURE in file "Common/IpLibraryLoader.cpp" at line 72:
 Exception message: libhsl.so: cannot open shared object file: No such file or directory

EXIT: Library loading failure.
      solver  :   t_proc      (avg)   t_wall      (avg)    n_eval
       total  | 448.00us (448.00us) 453.53us (453.53us)         1
Solver failed with ipopt.linear_solver=ma57: Error in Opti::solve [OptiNode] at .../casadi/core/optistack.cpp:217:
.../casadi/core/optistack_internal.cpp:1338: Assertion "return_success(accept_limit)" failed:
Solver failed. You may use opti.debug.value to investigate the latest values of variables. return_status is 'Invalid_Option'
Retrying with IPOPT default linear solver.

******************************************************************************
This program contains Ipopt, a library for large-scale nonlinear optimization.
 Ipopt is released as open source code under the Eclipse Public License (EPL).
         For more information visit https://github.com/coin-or/Ipopt
******************************************************************************

This is Ipopt version 3.14.11, running with linear solver MUMPS 5.4.1.

Number of nonzeros in equality constraint Jacobian...:    12225
Number of nonzeros in inequality constraint Jacobian.:     1308
Number of nonzeros in Lagrangian Hessian.............:     4432

Total number of variables............................:     1210
                     variables with only lower bounds:        0
                variables with lower and upper bounds:        0
                     variables with only upper bounds:        0
Total number of equality constraints.................:      970
Total number of inequality constraints...............:     1017
        inequality constraints with only lower bounds:      654
   inequality constraints with lower and upper bounds:        0
        inequality constraints with only upper bounds:      363

iter    objective    inf_pr   inf_du lg(mu)  ||d||  lg(rg) alpha_du alpha_pr  ls
   0  2.8000000e+01 1.94e-01 1.06e+00  -1.0 0.00e+00    -  0.00e+00 0.00e+00   0
   1  2.7895261e+01 1.84e+00 1.34e+03  -1.0 6.66e+00   2.0 7.10e-01 1.00e+00H  1
   2  2.7895647e+01 1.92e+00 9.85e+02  -1.0 1.95e-01   3.3 6.90e-01 2.50e-01h  3
   3  2.7897409e+01 1.73e+00 2.53e+03  -1.0 3.92e-01   3.8 1.00e+00 1.25e-01h  4
   4  2.7913816e+01 8.87e-01 8.77e+03  -1.0 2.86e-01   3.3 1.00e+00 1.00e+00h  1
   5  2.7930218e+01 1.74e-01 6.23e+03  -1.0 2.31e-01   2.8 1.00e+00 1.00e+00h  1
   6  2.7936728e+01 5.64e-02 6.71e+02  -1.0 9.65e-02   2.3 1.00e+00 1.00e+00h  1
   7  2.7936679e+01 5.59e-02 6.29e+02  -1.0 3.35e-02   1.8 1.00e+00 6.25e-02h  5
   8  2.7936699e+01 1.46e-02 4.28e+00  -1.0 4.48e-03   2.3 1.00e+00 1.00e+00h  1
   9  2.7936373e+01 2.68e-05 1.17e-01  -1.0 1.45e-03   1.8 1.00e+00 1.00e+00h  1
iter    objective    inf_pr   inf_du lg(mu)  ||d||  lg(rg) alpha_du alpha_pr  ls
  10  2.7935786e+01 2.06e-06 1.22e-02  -2.5 5.86e-04   1.3 1.00e+00 1.00e+00h  1
  11  2.7934071e+01 1.38e-05 1.19e-02  -3.8 1.72e-03   0.8 1.00e+00 1.00e+00h  1
  12  2.7928926e+01 1.25e-04 1.19e-02  -3.8 5.14e-03   0.4 1.00e+00 1.00e+00h  1
  13  2.7913517e+01 1.13e-03 1.19e-02  -3.8 1.54e-02  -0.1 1.00e+00 1.00e+00h  1
  14  2.7867511e+01 9.78e-03 1.18e-02  -3.8 4.60e-02  -0.6 1.00e+00 1.00e+00h  1
  15  2.7731784e+01 8.18e-02 1.37e-02  -3.8 1.36e-01  -1.1 1.00e+00 1.00e+00h  1
  16  2.7341204e+01 1.49e-01 3.18e-02  -3.8 3.91e-01  -1.5 1.00e+00 1.00e+00h  1
  17  2.6454232e+01 1.30e+00 2.47e-02  -3.8 1.29e+02    -  2.03e-02 1.90e-02f  1
  18  2.5501670e+01 9.22e-01 3.48e-02  -3.8 1.31e+00  -2.0 1.00e+00 1.00e+00h  1
  19  2.5322717e+01 9.10e-01 7.70e-02  -3.8 5.73e-01  -1.6 1.00e+00 5.90e-01h  1
iter    objective    inf_pr   inf_du lg(mu)  ||d||  lg(rg) alpha_du alpha_pr  ls
  20  2.4588576e+01 1.45e+00 3.80e-02  -3.8 1.42e+00  -2.1 5.32e-01 8.27e-01h  1
  21  2.4348694e+01 1.30e+00 8.50e-02  -3.8 2.97e+00  -2.5 3.61e-01 1.09e-01h  1
  22  2.4220222e+01 1.11e+00 1.04e-01  -3.8 1.18e+00  -2.1 8.35e-01 1.48e-01h  1
  23  2.3905567e+01 4.44e+00 1.27e-01  -3.8 1.17e+01  -2.6 5.86e-02 1.23e-01h  1
  24  2.3763214e+01 3.60e+00 1.15e-01  -3.8 2.32e+00  -2.2 1.00e+00 1.63e-01h  1
  25  2.2890354e+01 2.83e+00 6.62e-02  -3.8 3.40e+00  -2.7 1.00e+00 3.74e-01h  1
  26  2.2055530e+01 3.34e+00 4.04e-02  -3.8 1.74e+00  -2.2 1.00e+00 1.00e+00h  1
  27  2.1939543e+01 1.95e+00 4.19e-02  -3.8 2.43e+00  -1.8 2.34e-01 4.61e-01h  1
  28  2.1745899e+01 6.21e+00 1.22e-01  -3.8 1.70e+01  -2.3 6.22e-03 1.78e-01h  1
  29  2.1740671e+01 5.93e+00 9.11e-01  -3.8 7.91e+00  -1.9 6.22e-03 4.54e-02f  1
iter    objective    inf_pr   inf_du lg(mu)  ||d||  lg(rg) alpha_du alpha_pr  ls
  30  2.1736148e+01 5.24e+00 8.21e-01  -3.8 2.75e+00  -1.4 1.53e-01 1.18e-01h  1
  31  2.1688337e+01 4.26e+00 7.19e-01  -3.8 2.60e+00  -1.9 6.10e-01 1.86e-01h  1
  32  2.1648832e+01 4.45e+00 2.91e+00  -3.8 3.16e+01  -2.4 7.78e-03 1.48e-01h  2
  33  2.1662310e+01 9.47e+00 8.22e+00  -3.8 5.97e-01   0.8 5.81e-02 1.00e+00h  1
  34  2.1666893e+01 4.37e+00 2.08e+02  -3.8 1.21e+00   1.2 3.95e-02 1.63e-01h  1
  35  2.1669400e+01 3.92e+00 3.01e+02  -3.8 1.01e+00   0.7 1.03e-02 5.00e-01h  2
  36  2.1682164e+01 7.74e-01 8.26e+01  -3.8 1.06e+00   0.2 4.36e-01 1.00e+00h  1
  37  2.1682676e+01 4.71e-01 5.11e+01  -3.8 3.38e-01  -0.2 8.50e-01 3.92e-01h  1
  38  2.1670093e+01 2.15e-02 3.73e+00  -3.8 2.63e-01  -0.7 1.00e+00 1.00e+00h  1
  39  2.1659199e+01 4.54e-04 8.22e-02  -3.8 2.18e-02  -0.3 1.00e+00 1.00e+00h  1
iter    objective    inf_pr   inf_du lg(mu)  ||d||  lg(rg) alpha_du alpha_pr  ls
  40  2.1625908e+01 1.13e-02 2.16e-02  -3.8 6.31e-02  -0.8 1.00e+00 1.00e+00h  1
  41  2.1529585e+01 1.28e-01 9.53e-03  -3.8 1.71e-01  -1.3 1.00e+00 9.97e-01h  1
  42  2.1287681e+01 3.44e-01 9.39e-03  -3.8 3.98e-01  -1.7 1.00e+00 1.00e+00f  1
  43  2.1195800e+01 7.01e-01 4.93e-02  -3.8 2.48e-01  -1.3 1.00e+00 1.00e+00h  1
  44  2.0993721e+01 2.08e-01 2.07e-02  -3.8 3.19e-01  -1.8 5.04e-01 8.60e-01h  1
  45  2.0696373e+01 1.20e-01 2.53e-02  -3.8 6.33e-01  -2.3 8.84e-01 4.62e-01f  1
  46  2.0052081e+01 5.36e-01 9.83e-03  -3.8 2.36e+00  -2.7 1.00e+00 4.13e-01f  1
  47  1.9981341e+01 3.26e+00 5.49e-02  -3.8 1.27e+02  -3.2 2.66e-02 1.95e-02h  1
  48  1.9697496e+01 2.68e+00 4.16e-02  -3.8 2.24e+00  -2.8 1.00e+00 2.05e-01h  1
  49  1.8934883e+01 1.99e+00 3.30e-02  -3.8 4.00e+00  -3.3 3.91e-01 2.86e-01h  1
iter    objective    inf_pr   inf_du lg(mu)  ||d||  lg(rg) alpha_du alpha_pr  ls
  50  1.8574523e+01 1.20e+00 2.12e-02  -3.8 2.75e+00  -2.8 3.21e-01 4.70e-01h  1
  51  1.8365625e+01 1.75e+00 1.78e-02  -3.8 4.23e+00  -3.3 2.77e-01 1.38e-01h  1
  52  1.7753869e+01 1.54e+00 1.40e-02  -3.8 9.52e+00  -3.8 5.03e-01 2.53e-01h  1
  53  1.7599542e+01 3.25e+00 1.28e-02  -3.8 5.74e+00  -3.4 3.00e-01 1.65e-01h  1
  54  1.7675128e+01 1.18e+00 1.94e-01  -3.8 1.81e+00  -2.0 8.32e-01 9.39e-01h  1
  55  1.7673411e+01 9.28e-01 1.48e-01  -3.8 8.65e-01  -1.6 2.00e-02 2.55e-01h  1
  56  1.7675588e+01 7.07e-01 1.14e-01  -3.8 9.21e-01  -1.2 4.01e-01 2.50e-01h  1
  57  1.7672559e+01 5.08e-01 2.97e-01  -3.8 9.73e-01  -1.7 8.25e-02 6.40e-01h  1
  58  1.7619089e+01 1.94e-01 3.87e-02  -3.8 6.07e-01  -2.1 1.00e+00 9.42e-01h  1
  59  1.7618180e+01 1.70e-02 1.23e-02  -3.8 9.07e-02  -0.8 8.84e-01 1.00e+00h  1
iter    objective    inf_pr   inf_du lg(mu)  ||d||  lg(rg) alpha_du alpha_pr  ls
  60  1.7608796e+01 4.24e-03 2.57e-03  -3.8 5.00e-02  -1.3 1.00e+00 1.00e+00h  1
  61  1.7581803e+01 1.92e-02 2.53e-03  -3.8 1.48e-01  -1.8 1.00e+00 1.00e+00h  1
  62  1.7511722e+01 8.98e-02 1.77e-02  -3.8 4.37e-01  -2.2 1.00e+00 9.62e-01h  1
  63  1.7442913e+01 4.70e-01 1.12e-02  -3.8 1.76e+00  -2.7 1.00e+00 3.99e-01h  1
  64  1.7378450e+01 1.17e+00 9.14e-03  -3.8 6.09e-01  -2.3 1.00e+00 1.00e+00h  1
  65  1.7317520e+01 8.70e-01 1.76e-02  -3.8 1.06e+00  -2.8 9.17e-01 4.14e-01h  1
  66  1.7271306e+01 6.13e-01 6.50e-03  -3.8 7.39e-01  -2.3 1.00e+00 1.00e+00h  1
  67  1.7140079e+01 1.31e+00 6.21e-03  -3.8 1.56e+00  -2.8 1.00e+00 1.00e+00h  1
  68  1.7101426e+01 7.82e-01 5.40e-02  -3.8 5.61e-01  -2.4 1.00e+00 1.00e+00h  1
  69  1.6974496e+01 2.88e+00 8.37e-02  -3.8 3.17e+00  -2.9 8.77e-01 1.00e+00h  1
iter    objective    inf_pr   inf_du lg(mu)  ||d||  lg(rg) alpha_du alpha_pr  ls
  70  1.6979388e+01 1.75e+00 7.23e-02  -3.8 2.38e+00  -1.5 9.96e-02 4.16e-01h  1
  71  1.6981711e+01 5.89e-01 5.88e-02  -3.8 1.23e+00  -2.0 5.65e-01 6.85e-01h  1
  72  1.6948461e+01 1.70e+00 3.71e-02  -3.8 6.23e-01  -2.5 1.00e+00 1.00e+00h  1
  73  1.6938236e+01 2.93e+00 4.59e-02  -3.8 8.19e-01  -2.1 1.00e+00 1.00e+00h  1
  74  1.6933004e+01 1.34e+00 1.98e-01  -3.8 9.76e-01  -1.6 8.30e-01 1.00e+00h  1
  75  1.6919422e+01 4.08e+00 1.46e-01  -3.8 5.26e-01  -2.1 1.00e+00 1.00e+00h  1
  76  1.6783299e+01 3.48e+00 1.26e-01  -3.8 1.50e+01    -  1.40e-01 1.49e-01h  1
  77  1.6775854e+01 2.87e+00 3.21e-01  -3.8 2.01e+00  -2.6 9.32e-01 1.00e+00h  1
  78  1.6773384e+01 3.02e+00 2.39e-01  -3.8 2.42e+00  -2.2 2.88e-01 2.72e-01h  1
  79  1.6773315e+01 2.84e+00 1.02e+00  -3.8 7.92e-01   0.1 4.12e-01 5.75e-02h  1
iter    objective    inf_pr   inf_du lg(mu)  ||d||  lg(rg) alpha_du alpha_pr  ls
  80  1.6773436e+01 1.80e+00 2.16e-01  -3.8 6.00e-01  -0.4 1.00e+00 3.08e-01h  1
  81  1.6773157e+01 5.40e-01 3.74e-01  -3.8 4.07e-01  -0.9 1.00e+00 1.00e+00h  1
  82  1.6773240e+01 1.92e-01 1.64e-01  -3.8 4.55e-02  -0.5 1.00e+00 1.00e+00h  1
  83  1.6773251e+01 1.29e-01 4.69e-02  -3.8 8.45e-02  -0.9 1.00e+00 1.00e+00h  1
  84  1.6773014e+01 5.96e-03 4.03e-02  -3.8 5.40e-02  -0.5 1.00e+00 1.00e+00h  1
  85  1.6772935e+01 1.59e-04 2.41e-03  -3.8 2.51e-03  -0.1 1.00e+00 1.00e+00h  1
  86  1.6772670e+01 2.52e-04 1.18e-03  -3.8 4.45e-03  -0.6 1.00e+00 1.00e+00h  1
  87  1.6770116e+01 7.58e-03 2.22e-03  -5.7 2.05e-02  -1.1 8.48e-01 1.00e+00h  1
  88  1.6768245e+01 1.79e-02 1.35e-02  -5.7 5.31e-02  -1.5 8.93e-01 4.32e-01h  1
  89  1.6763882e+01 6.67e-02 1.55e-02  -5.7 1.37e-01  -2.0 8.65e-01 4.76e-01h  1
iter    objective    inf_pr   inf_du lg(mu)  ||d||  lg(rg) alpha_du alpha_pr  ls
  90  1.6761687e+01 1.19e-01 8.96e-03  -5.7 7.02e-02  -1.6 1.00e+00 6.55e-01h  1
  91  1.6758831e+01 8.04e-02 5.56e-03  -5.7 1.70e-01  -2.1 1.00e+00 3.37e-01h  1
  92  1.6755699e+01 1.19e-01 8.00e-03  -5.7 8.04e-01  -2.5 1.00e+00 1.37e-01h  1
  93  1.6752871e+01 7.75e-02 3.95e-03  -5.7 1.04e-01  -2.1 1.00e+00 3.51e-01h  1
  94  1.6750010e+01 1.08e-02 7.59e-04  -5.7 3.64e-02  -1.7 1.00e+00 9.81e-01h  1
  95  1.6746559e+01 3.63e-02 1.61e-03  -5.7 1.11e-01  -2.2 1.00e+00 4.15e-01h  1
  96  1.6739563e+01 3.80e-02 6.97e-03  -5.7 3.53e-01  -2.6 1.00e+00 3.00e-01h  1
  97  1.6731630e+01 3.49e-02 4.95e-03  -5.7 1.23e+00  -3.1 4.68e-01 1.29e-01h  1
  98  1.6727591e+01 3.07e-02 3.75e-02  -5.7 3.68e-01  -2.7 4.52e-01 1.74e-01h  1
  99  1.6712549e+01 1.49e-01 1.21e-02  -5.7 1.42e+00  -3.2 6.33e-01 2.98e-01h  1
iter    objective    inf_pr   inf_du lg(mu)  ||d||  lg(rg) alpha_du alpha_pr  ls
 100  1.6712264e+01 1.46e-01 2.44e-02  -5.7 4.51e-01  -2.7 1.00e+00 1.59e-02h  1
 101  1.6701472e+01 1.87e-01 1.81e-02  -5.7 1.85e+00  -3.2 3.08e-01 2.78e-01h  1
 102  1.6692790e+01 1.87e-01 8.77e-03  -5.7 4.69e-01  -2.8 7.45e-01 6.09e-01h  1
 103  1.6687945e+01 2.06e-01 3.07e-03  -5.7 2.28e-01  -2.4 1.00e+00 9.96e-01h  1
 104  1.6686482e+01 1.87e-01 2.72e-03  -5.7 1.07e+00  -2.8 4.06e-01 1.01e-01h  1
 105  1.6685062e+01 1.61e-01 1.11e-02  -5.7 3.49e-01  -2.4 1.00e+00 2.77e-01h  1
 106  1.6682647e+01 1.28e-01 1.29e-02  -5.7 5.88e-01  -2.9 2.88e-01 2.00e-01h  1
 107  1.6677165e+01 4.15e-01 1.67e-02  -5.7 9.21e+00  -3.4 1.07e-02 1.09e-01h  1
 108  1.6673412e+01 2.05e-01 2.26e-02  -5.7 3.80e+01  -3.8 1.00e-02 2.18e-02h  1
 109  1.6672278e+01 1.99e-01 3.31e-02  -5.7 2.17e+00  -3.4 1.04e-02 2.34e-02h  1
iter    objective    inf_pr   inf_du lg(mu)  ||d||  lg(rg) alpha_du alpha_pr  ls
 110  1.6668034e+01 2.72e-01 3.64e-02  -5.7 4.79e+00  -3.0 1.38e-02 1.12e-01h  1
 111  1.6658439e+01 3.47e+00 6.12e-02  -5.7 5.82e-01  -2.6 6.01e-01 1.00e+00f  1
 112  1.6658175e+01 3.39e+00 5.97e-02  -5.7 7.51e-01  -3.0 8.37e-01 2.12e-02h  1
 113  1.6655301e+01 2.99e+00 4.77e-02  -5.7 2.59e+00  -3.5 3.73e-01 1.09e-01h  1
 114  1.6648273e+01 2.74e+00 3.96e-02  -5.7 2.51e+01    -  2.75e-02 6.08e-02h  1
 115  1.6647596e+01 2.59e+00 3.40e-02  -5.7 1.06e+00  -3.1 3.53e-02 5.15e-02h  1
 116  1.6642781e+01 2.42e+00 3.06e-02  -5.7 4.66e+00  -3.6 2.32e-01 9.05e-02h  1
 117  1.6636217e+01 1.90e+00 1.80e-02  -5.7 1.29e+00  -3.1 2.82e-01 3.67e-01h  1
 118  1.6621607e+01 2.63e+00 1.13e-02  -5.7 4.27e+01  -3.6 1.23e-02 4.01e-02h  1
 119  1.6620369e+01 2.34e+00 7.27e-03  -5.7 2.60e+00  -3.2 1.17e-02 1.20e-01h  1
iter    objective    inf_pr   inf_du lg(mu)  ||d||  lg(rg) alpha_du alpha_pr  ls
 120  1.6616890e+01 2.12e+00 6.53e-03  -5.7 4.31e+00  -3.7 9.60e-02 9.43e-02h  1
 121  1.6609737e+01 2.09e+00 6.43e-03  -5.7 5.11e+01  -4.2 1.55e-02 1.59e-02h  1
 122  1.6609646e+01 2.08e+00 1.31e-02  -5.7 3.98e+00  -3.7 8.17e-02 3.03e-03h  1
 123  1.6610042e+01 1.92e+00 1.19e-02  -5.7 1.50e+00  -3.3 7.86e-02 8.08e-02h  1
 124  1.6610598e+01 1.61e+00 3.94e-02  -5.7 2.24e+00  -2.9 2.33e-02 1.61e-01h  1
 125  1.6610860e+01 1.53e+00 4.37e-02  -5.7 1.39e+00  -2.4 5.52e-01 4.92e-02h  1
 126  1.6609358e+01 8.86e-01 3.82e-02  -5.7 2.90e+00  -2.9 6.56e-02 4.33e-01h  1
 127  1.6609804e+01 7.37e-01 2.97e-02  -5.7 3.76e+00  -3.4 1.69e-04 1.74e-01h  1
 128  1.6605641e+01 8.09e-01 2.15e-02  -5.7 2.38e+00  -3.0 1.66e-01 3.11e-01h  1
 129  1.6603797e+01 7.18e-01 1.70e-02  -5.7 3.98e+00  -3.5 1.22e-04 1.14e-01h  1
iter    objective    inf_pr   inf_du lg(mu)  ||d||  lg(rg) alpha_du alpha_pr  ls
 130  1.6603457e+01 4.22e-01 1.82e-01  -5.7 9.07e-01  -3.0 9.16e-02 4.13e-01h  1
 131  1.6602919e+01 3.42e-01 1.44e-01  -5.7 7.72e-01  -2.6 3.64e-01 2.10e-01h  1
 132  1.6599058e+01 3.62e-01 1.12e-01  -5.7 1.43e+00  -3.1 1.22e-01 2.61e-01h  1
 133  1.6592880e+01 5.75e-01 1.27e-02  -5.7 7.60e-01  -2.7 7.44e-01 1.00e+00f  1
 134  1.6590346e+01 2.34e-01 2.49e-03  -5.7 4.74e-01  -2.2 1.00e+00 8.04e-01h  1
 135  1.6587885e+01 1.67e-01 1.96e-02  -5.7 8.85e-01  -2.7 2.29e-01 3.22e-01h  1
 136  1.6586826e+01 1.62e-01 1.87e-02  -5.7 5.86e+00  -3.2 7.26e-02 3.11e-02h  1
 137  1.6584981e+01 1.33e-01 1.46e-02  -5.7 6.78e-01  -2.8 1.75e-01 2.28e-01h  1
 138  1.6583248e+01 1.29e-01 1.40e-02  -5.7 6.60e+00  -3.2 8.25e-02 3.71e-02h  1
 139  1.6581090e+01 3.66e+00 3.78e-02  -5.7 1.15e+00  -2.8 9.60e-02 2.85e-01h  1
iter    objective    inf_pr   inf_du lg(mu)  ||d||  lg(rg) alpha_du alpha_pr  ls
 140  1.6579459e+01 3.13e+00 4.30e-02  -5.7 1.54e+00  -2.4 5.87e-02 1.69e-01h  1
 141  1.6579416e+01 2.99e+00 3.71e-02  -5.7 4.40e-01  -1.1 2.75e-01 3.64e-02h  1
 142  1.6579682e+01 3.05e-01 1.67e-01  -5.7 3.21e-01  -0.6 2.42e-01 3.68e-01h  1
 143  1.6579688e+01 2.61e-01 1.34e-01  -5.7 1.23e-01  -0.2 1.50e-01 2.02e-01h  1
 144  1.6579674e+01 2.36e-01 7.66e-02  -5.7 1.14e-01  -0.7 5.21e-01 3.68e-01h  1
 145  1.6579835e+01 1.29e-01 3.85e-02  -5.7 8.30e-02  -1.2 4.25e-01 4.41e-01h  1
 146  1.6579677e+01 8.91e-02 2.56e-02  -5.7 4.99e-02  -1.6 6.57e-01 3.06e-01h  1
 147  1.6578849e+01 4.89e-02 1.30e-02  -5.7 7.82e-02  -2.1 8.77e-01 4.43e-01h  1
 148  1.6573705e+01 1.16e+00 2.24e-01  -5.7 1.31e+00    -  2.18e-01 2.60e-01h  1
 149  1.6572791e+01 7.26e-01 1.32e-01  -5.7 3.15e-01  -2.6 9.06e-02 4.85e-01h  1
iter    objective    inf_pr   inf_du lg(mu)  ||d||  lg(rg) alpha_du alpha_pr  ls
 150  1.6572470e+01 4.95e-01 8.29e-02  -5.7 1.74e-01  -2.2 1.00e+00 4.21e-01h  1
 151  1.6572440e+01 3.27e-01 1.77e-02  -5.7 1.14e-01  -1.7 7.39e-01 1.00e+00h  1
 152  1.6572526e+01 2.72e-01 7.58e-02  -5.7 1.32e-01  -0.4 9.03e-03 2.87e-01h  1
 153  1.6572472e+01 2.41e-01 6.70e-02  -5.7 2.14e-01  -0.9 3.89e-01 1.15e-01h  1
 154  1.6572363e+01 1.51e-01 4.07e-02  -5.7 1.96e-01  -1.4 1.00e+00 3.87e-01h  1
 155  1.6572309e+01 1.23e-01 3.32e-02  -5.7 1.93e-01  -1.8 1.00e+00 1.83e-01h  1
 156  1.6571257e+01 1.15e-01 3.10e-02  -5.7 3.13e+00    -  5.08e-02 6.87e-02h  1
 157  1.6570485e+01 1.08e-01 2.91e-02  -5.7 3.36e+00    -  2.65e-01 6.18e-02h  1
 158  1.6569454e+01 9.73e-02 2.62e-02  -5.7 3.50e+00    -  6.25e-01 9.95e-02h  1
 159  1.6566564e+01 5.19e-01 1.69e-02  -5.7 1.99e+00    -  1.87e-01 3.58e-01h  1
iter    objective    inf_pr   inf_du lg(mu)  ||d||  lg(rg) alpha_du alpha_pr  ls
 160  1.6565208e+01 3.16e-01 9.75e-03  -5.7 4.78e-01    -  6.86e-01 4.25e-01h  1
 161  1.6564243e+01 3.25e-01 4.75e-03  -5.7 4.23e-01    -  1.00e+00 1.00e+00h  1
 162  1.6564036e+01 1.89e-01 1.90e-03  -5.7 9.96e-01    -  4.54e-01 6.12e-01h  1
 163  1.6564059e+01 2.78e-02 1.34e-04  -5.7 3.13e-01    -  1.00e+00 1.00e+00h  1
 164  1.6564116e+01 1.86e-03 1.35e-05  -5.7 1.09e-01    -  1.00e+00 1.00e+00h  1
 165  1.6564116e+01 4.44e-05 1.55e-07  -5.7 1.61e-02    -  1.00e+00 1.00e+00h  1
 166  1.6564116e+01 3.99e-07 1.60e-09  -5.7 1.42e-03    -  1.00e+00 1.00e+00h  1
 167  1.6564027e+01 1.08e-04 2.61e-04  -7.0 2.89e-02    -  9.89e-01 8.64e-01h  1
 168  1.6564015e+01 1.11e-05 1.54e-06  -7.0 8.11e-03    -  1.00e+00 1.00e+00h  1
 169  1.6564015e+01 6.62e-08 9.04e-09  -7.0 5.81e-04    -  1.00e+00 1.00e+00h  1

Number of Iterations....: 169

                                   (scaled)                 (unscaled)
Objective...............:   1.6564014615112438e+01    1.6564014615112438e+01
Dual infeasibility......:   9.0397706278236723e-09    9.0397706278236723e-09
Constraint violation....:   6.6225248840368067e-08    6.6225248840368067e-08
Variable bound violation:   0.0000000000000000e+00    0.0000000000000000e+00
Complementarity.........:   9.6243479183667475e-08    9.6243479183667475e-08
Overall NLP error.......:   9.6243479183667475e-08    9.6243479183667475e-08


Number of objective function evaluations             = 190
Number of objective gradient evaluations             = 170
Number of equality constraint evaluations            = 190
Number of inequality constraint evaluations          = 190
Number of equality constraint Jacobian evaluations   = 170
Number of inequality constraint Jacobian evaluations = 170
Number of Lagrangian Hessian evaluations             = 169
Total seconds in IPOPT                               = 30.238

EXIT: Optimal Solution Found.
      solver  :   t_proc      (avg)   t_wall      (avg)    n_eval
       nlp_f  |   8.15ms ( 42.88us)   8.26ms ( 43.46us)       190
       nlp_g  | 972.15ms (  5.12ms) 979.60ms (  5.16ms)       190
  nlp_grad_f  |  12.14ms ( 71.00us)  12.28ms ( 71.82us)       171
  nlp_hess_l  |  20.29 s (120.05ms)  20.48 s (121.15ms)       169
   nlp_jac_g  |   5.58 s ( 32.66ms)   5.63 s ( 32.95ms)       171
       total  |  29.97 s ( 29.97 s)  30.24 s ( 30.24 s)         1
  Success: True
  Cost: 16.5640
  Iterations: 169
  Solve time: 52.16 s
  Max obstacle slack: 0.0000e+00
  Min obstacle clearance: inf m
  Accepted: True

Accepted attempt: baseline

Generating plots...
  Saved: /run/media/saveas/Secondary-Storage/Masters/CS234/CS234_Reinforcement_Learning/Final Project/CS234_Final_Project/results/trajectory_optimization/nlp/TRACK1_280m/base/ipopt_single_stage_trajectory.png
  Saved: /run/media/saveas/Secondary-Storage/Masters/CS234/CS234_Reinforcement_Learning/Final Project/CS234_Final_Project/results/trajectory_optimization/nlp/TRACK1_280m/base/ipopt_single_stage_states.png
  Saved: /run/media/saveas/Secondary-Storage/Masters/CS234/CS234_Reinforcement_Learning/Final Project/CS234_Final_Project/results/trajectory_optimization/nlp/TRACK1_280m/base/ipopt_single_stage_controls.png

Generating animation...
  Saved: /run/media/saveas/Secondary-Storage/Masters/CS234/CS234_Reinforcement_Learning/Final Project/CS234_Final_Project/results/trajectory_optimization/nlp/TRACK1_280m/base/ipopt_single_stage_animation.gif

======================================================================
SUMMARY
======================================================================
Selected attempt: baseline
Attempt                    N      Subs   Clear    Iters    Time [s]   Cost [s]   Max Sigma    Min Clear [m]  Accepted
-----------------------------------------------------------------------------------------------------------------------------
baseline                   120    7      0.000    169      52.16      16.5640    0.000e+00    inf            True

All outputs saved to: /run/media/saveas/Secondary-Storage/Masters/CS234/CS234_Reinforcement_Learning/Final Project/CS234_Final_Project/results/trajectory_optimization/nlp/TRACK1_280m/base
